p cnf 430 1488
-191 39 0
-191 144 0
-191 76 0
-191 -77 0
-191 -108 0
191 -39 -144 -76 77 108 0
-192 86 0
-192 75 0
-192 -118 0
-192 -183 0
-192 -94 0
192 -86 -75 118 183 94 0
-193 66 0
-193 -28 0
-193 -176 0
-193 -185 0
-193 135 0
193 -66 28 176 185 -135 0
-194 -4 0
-194 169 0
-194 107 0
-194 19 0
-194 -57 0
194 4 -169 -107 -19 57 0
-195 -1 0
-195 67 0
-195 2 0
-195 22 0
-195 -62 0
195 1 -67 -2 -22 62 0
191 192 193 194 195 0
-196 -155 0
-196 -16 0
-196 94 0
-196 -32 0
-196 -42 0
196 155 16 -94 32 42 0
-197 -77 0
-197 189 0
-197 121 0
-197 79 0
-197 -184 0
197 77 -189 -121 -79 184 0
-198 -96 0
-198 -68 0
-198 -187 0
-198 64 0
-198 -102 0
198 96 68 187 -64 102 0
-199 -88 0
-199 -178 0
-199 -10 0
-199 -103 0
-199 -68 0
199 88 178 10 103 68 0
-200 55 0
-200 180 0
-200 38 0
-200 102 0
-200 -181 0
200 -55 -180 -38 -102 181 0
196 197 198 199 200 0
-201 31 0
-201 -70 0
-201 135 0
-201 -48 0
-201 121 0
201 -31 70 -135 48 -121 0
-202 -126 0
-202 95 0
-202 132 0
-202 -27 0
-202 -87 0
202 126 -95 -132 27 87 0
-203 29 0
-203 121 0
-203 -132 0
-203 -41 0
-203 67 0
203 -29 -121 132 41 -67 0
-204 154 0
-204 -153 0
-204 71 0
-204 75 0
-204 145 0
204 -154 153 -71 -75 -145 0
-205 -10 0
-205 109 0
-205 114 0
-205 -42 0
-205 -129 0
205 10 -109 -114 42 129 0
201 202 203 204 205 0
-206 88 0
-206 -178 0
-206 -170 0
-206 188 0
-206 146 0
206 -88 178 170 -188 -146 0
-207 -5 0
-207 128 0
-207 27 0
-207 -124 0
-207 186 0
207 5 -128 -27 124 -186 0
-208 140 0
-208 56 0
-208 188 0
-208 -15 0
-208 -163 0
208 -140 -56 -188 15 163 0
-209 -33 0
-209 -63 0
-209 39 0
-209 -97 0
-209 -166 0
209 33 63 -39 97 166 0
-210 119 0
-210 73 0
-210 131 0
-210 18 0
-210 -12 0
210 -119 -73 -131 -18 12 0
206 207 208 209 210 0
-211 92 0
-211 37 0
-211 -188 0
-211 -1 0
-211 -152 0
211 -92 -37 188 1 152 0
-212 -170 0
-212 -97 0
-212 -26 0
-212 -188 0
-212 102 0
212 170 97 26 188 -102 0
-213 -31 0
-213 -45 0
-213 -61 0
-213 -166 0
-213 -173 0
213 31 45 61 166 173 0
-214 -128 0
-214 -21 0
-214 35 0
-214 -67 0
-214 74 0
214 128 21 -35 67 -74 0
-215 26 0
-215 98 0
-215 71 0
-215 137 0
-215 -27 0
215 -26 -98 -71 -137 27 0
211 212 213 214 215 0
-216 93 0
-216 160 0
-216 140 0
-216 -100 0
-216 182 0
216 -93 -160 -140 100 -182 0
-217 -182 0
-217 -62 0
-217 169 0
-217 -50 0
-217 171 0
217 182 62 -169 50 -171 0
-218 131 0
-218 -141 0
-218 -94 0
-218 -110 0
-218 -147 0
218 -131 141 94 110 147 0
-219 52 0
-219 178 0
-219 12 0
-219 53 0
-219 -183 0
219 -52 -178 -12 -53 183 0
-220 -107 0
-220 154 0
-220 -95 0
-220 173 0
-220 72 0
220 107 -154 95 -173 -72 0
216 217 218 219 220 0
-221 21 0
-221 -102 0
-221 110 0
-221 162 0
-221 89 0
221 -21 102 -110 -162 -89 0
-222 -101 0
-222 20 0
-222 189 0
-222 150 0
-222 83 0
222 101 -20 -189 -150 -83 0
-223 40 0
-223 -3 0
-223 -116 0
-223 -167 0
-223 -61 0
223 -40 3 116 167 61 0
-224 -36 0
-224 -170 0
-224 111 0
-224 125 0
-224 -142 0
224 36 170 -111 -125 142 0
-225 -180 0
-225 -170 0
-225 -139 0
-225 89 0
-225 -64 0
225 180 170 139 -89 64 0
221 222 223 224 225 0
-226 -167 0
-226 -20 0
-226 180 0
-226 -123 0
-226 -181 0
226 167 20 -180 123 181 0
-227 13 0
-227 -112 0
-227 73 0
-227 30 0
-227 -55 0
227 -13 112 -73 -30 55 0
-228 -134 0
-228 -159 0
-228 -145 0
-228 -127 0
-228 149 0
228 134 159 145 127 -149 0
-229 -55 0
-229 82 0
-229 -4 0
-229 -112 0
-229 146 0
229 55 -82 4 112 -146 0
-230 186 0
-230 175 0
-230 -94 0
-230 -23 0
-230 43 0
230 -186 -175 94 23 -43 0
226 227 228 229 230 0
-231 129 0
-231 163 0
-231 102 0
-231 -58 0
-231 -48 0
231 -129 -163 -102 58 48 0
-232 68 0
-232 27 0
-232 36 0
-232 144 0
-232 -46 0
232 -68 -27 -36 -144 46 0
-233 100 0
-233 -16 0
-233 9 0
-233 -33 0
-233 157 0
233 -100 16 -9 33 -157 0
-234 82 0
-234 23 0
-234 136 0
-234 44 0
-234 172 0
234 -82 -23 -136 -44 -172 0
-235 -90 0
-235 -100 0
-235 -156 0
-235 -4 0
-235 -154 0
235 90 100 156 4 154 0
231 232 233 234 235 0
-236 188 0
-236 5 0
-236 170 0
-236 25 0
-236 38 0
236 -188 -5 -170 -25 -38 0
-237 -187 0
-237 -65 0
-237 59 0
-237 126 0
-237 52 0
237 187 65 -59 -126 -52 0
-238 -98 0
-238 18 0
-238 81 0
-238 -106 0
-238 -149 0
238 98 -18 -81 106 149 0
-239 178 0
-239 -42 0
-239 -132 0
-239 127 0
-239 -157 0
239 -178 42 132 -127 157 0
-240 -42 0
-240 190 0
-240 110 0
-240 -166 0
-240 -171 0
240 42 -190 -110 166 171 0
236 237 238 239 240 0
-241 36 0
-241 -60 0
-241 130 0
-241 93 0
-241 11 0
241 -36 60 -130 -93 -11 0
-242 -35 0
-242 -76 0
-242 117 0
-242 109 0
-242 -136 0
242 35 76 -117 -109 136 0
-243 72 0
-243 41 0
-243 133 0
-243 -183 0
-243 27 0
243 -72 -41 -133 183 -27 0
-244 21 0
-244 -176 0
-244 -111 0
-244 -174 0
-244 83 0
244 -21 176 111 174 -83 0
-245 84 0
-245 28 0
-245 -41 0
-245 133 0
-245 26 0
245 -84 -28 41 -133 -26 0
241 242 243 244 245 0
-246 85 0
-246 8 0
-246 94 0
-246 -75 0
-246 -157 0
246 -85 -8 -94 75 157 0
-247 -82 0
-247 -26 0
-247 -86 0
-247 4 0
-247 164 0
247 82 26 86 -4 -164 0
-248 -64 0
-248 25 0
-248 -109 0
-248 93 0
-248 -157 0
248 64 -25 109 -93 157 0
-249 -135 0
-249 -117 0
-249 -121 0
-249 -161 0
-249 147 0
249 135 117 121 161 -147 0
-250 -174 0
-250 126 0
-250 138 0
-250 187 0
-250 57 0
250 174 -126 -138 -187 -57 0
246 247 248 249 250 0
-251 -14 0
-251 -50 0
-251 124 0
-251 134 0
-251 142 0
251 14 50 -124 -134 -142 0
-252 159 0
-252 133 0
-252 -99 0
-252 139 0
-252 66 0
252 -159 -133 99 -139 -66 0
-253 -72 0
-253 4 0
-253 -162 0
-253 -45 0
-253 134 0
253 72 -4 162 45 -134 0
-254 115 0
-254 32 0
-254 -135 0
-254 -155 0
-254 -169 0
254 -115 -32 135 155 169 0
-255 60 0
-255 122 0
-255 -67 0
-255 -135 0
-255 -126 0
255 -60 -122 67 135 126 0
251 252 253 254 255 0
-256 -110 0
-256 -82 0
-256 -168 0
-256 17 0
-256 119 0
256 110 82 168 -17 -119 0
-257 -17 0
-257 -108 0
-257 122 0
-257 -9 0
-257 170 0
257 17 108 -122 9 -170 0
-258 189 0
-258 167 0
-258 50 0
-258 118 0
-258 82 0
258 -189 -167 -50 -118 -82 0
-259 74 0
-259 -94 0
-259 128 0
-259 89 0
-259 189 0
259 -74 94 -128 -89 -189 0
-260 -143 0
-260 -66 0
-260 10 0
-260 -86 0
-260 -19 0
260 143 66 -10 86 19 0
256 257 258 259 260 0
-261 -149 0
-261 -49 0
-261 94 0
-261 3 0
-261 53 0
261 149 49 -94 -3 -53 0
-262 -92 0
-262 -1 0
-262 44 0
-262 -131 0
-262 100 0
262 92 1 -44 131 -100 0
-263 -173 0
-263 -75 0
-263 16 0
-263 -83 0
-263 20 0
263 173 75 -16 83 -20 0
-264 158 0
-264 53 0
-264 64 0
-264 -141 0
-264 -80 0
264 -158 -53 -64 141 80 0
-265 176 0
-265 -5 0
-265 77 0
-265 12 0
-265 -151 0
265 -176 5 -77 -12 151 0
261 262 263 264 265 0
-266 43 0
-266 -76 0
-266 90 0
-266 -8 0
-266 99 0
266 -43 76 -90 8 -99 0
-267 19 0
-267 -157 0
-267 168 0
-267 -17 0
-267 159 0
267 -19 157 -168 17 -159 0
-268 -25 0
-268 119 0
-268 -70 0
-268 114 0
-268 129 0
268 25 -119 70 -114 -129 0
-269 -27 0
-269 161 0
-269 142 0
-269 -50 0
-269 -131 0
269 27 -161 -142 50 131 0
-270 158 0
-270 163 0
-270 145 0
-270 35 0
-270 178 0
270 -158 -163 -145 -35 -178 0
266 267 268 269 270 0
-271 146 0
-271 116 0
-271 -144 0
-271 -83 0
-271 71 0
271 -146 -116 144 83 -71 0
-272 48 0
-272 -83 0
-272 87 0
-272 176 0
-272 134 0
272 -48 83 -87 -176 -134 0
-273 144 0
-273 -1 0
-273 -44 0
-273 -84 0
-273 171 0
273 -144 1 44 84 -171 0
-274 55 0
-274 96 0
-274 41 0
-274 -87 0
-274 -163 0
274 -55 -96 -41 87 163 0
-275 -92 0
-275 -86 0
-275 29 0
-275 15 0
-275 -18 0
275 92 86 -29 -15 18 0
271 272 273 274 275 0
-276 -138 0
-276 168 0
-276 -16 0
-276 124 0
-276 12 0
276 138 -168 16 -124 -12 0
-277 -8 0
-277 162 0
-277 -127 0
-277 7 0
-277 123 0
277 8 -162 127 -7 -123 0
-278 96 0
-278 41 0
-278 128 0
-278 176 0
-278 -27 0
278 -96 -41 -128 -176 27 0
-279 -82 0
-279 56 0
-279 -119 0
-279 66 0
-279 -38 0
279 82 -56 119 -66 38 0
-280 -152 0
-280 137 0
-280 -30 0
-280 175 0
-280 28 0
280 152 -137 30 -175 -28 0
276 277 278 279 280 0
-281 -84 0
-281 80 0
-281 167 0
-281 138 0
-281 -25 0
281 84 -80 -167 -138 25 0
-282 -98 0
-282 171 0
-282 32 0
-282 -110 0
-282 -66 0
282 98 -171 -32 110 66 0
-283 168 0
-283 66 0
-283 163 0
-283 169 0
-283 -100 0
283 -168 -66 -163 -169 100 0
-284 -116 0
-284 122 0
-284 -95 0
-284 -153 0
-284 69 0
284 116 -122 95 153 -69 0
-285 147 0
-285 -1 0
-285 124 0
-285 10 0
-285 164 0
285 -147 1 -124 -10 -164 0
281 282 283 284 285 0
-286 -128 0
-286 -90 0
-286 88 0
-286 -8 0
-286 131 0
286 128 90 -88 8 -131 0
-287 162 0
-287 -106 0
-287 69 0
-287 -47 0
-287 -124 0
287 -162 106 -69 47 124 0
-288 69 0
-288 140 0
-288 129 0
-288 -119 0
-288 6 0
288 -69 -140 -129 119 -6 0
-289 167 0
-289 148 0
-289 -184 0
-289 -131 0
-289 -64 0
289 -167 -148 184 131 64 0
-290 -174 0
-290 -55 0
-290 32 0
-290 -178 0
-290 -128 0
290 174 55 -32 178 128 0
286 287 288 289 290 0
-291 -181 0
-291 -187 0
-291 -177 0
-291 3 0
-291 -83 0
291 181 187 177 -3 83 0
-292 -176 0
-292 -183 0
-292 188 0
-292 -80 0
-292 -156 0
292 176 183 -188 80 156 0
-293 -87 0
-293 112 0
-293 11 0
-293 -61 0
-293 179 0
293 87 -112 -11 61 -179 0
-294 124 0
-294 7 0
-294 -101 0
-294 177 0
-294 167 0
294 -124 -7 101 -177 -167 0
-295 -43 0
-295 58 0
-295 157 0
-295 169 0
-295 -117 0
295 43 -58 -157 -169 117 0
291 292 293 294 295 0
-296 75 0
-296 -74 0
-296 -37 0
-296 -162 0
-296 173 0
296 -75 74 37 162 -173 0
-297 -105 0
-297 -13 0
-297 58 0
-297 -141 0
-297 173 0
297 105 13 -58 141 -173 0
-298 -36 0
-298 165 0
-298 -118 0
-298 -43 0
-298 -130 0
298 36 -165 118 43 130 0
-299 -75 0
-299 -188 0
-299 -140 0
-299 130 0
-299 -133 0
299 75 188 140 -130 133 0
-300 148 0
-300 186 0
-300 -82 0
-300 -28 0
-300 163 0
300 -148 -186 82 28 -163 0
296 297 298 299 300 0
-301 -56 0
-301 51 0
-301 -45 0
-301 -134 0
-301 131 0
301 56 -51 45 134 -131 0
-302 -186 0
-302 -162 0
-302 80 0
-302 -155 0
-302 44 0
302 186 162 -80 155 -44 0
-303 -113 0
-303 163 0
-303 -63 0
-303 -46 0
-303 59 0
303 113 -163 63 46 -59 0
-304 188 0
-304 -156 0
-304 110 0
-304 -10 0
-304 -126 0
304 -188 156 -110 10 126 0
-305 -13 0
-305 7 0
-305 163 0
-305 169 0
-305 68 0
305 13 -7 -163 -169 -68 0
301 302 303 304 305 0
-306 44 0
-306 -104 0
-306 100 0
-306 -69 0
-306 -145 0
306 -44 104 -100 69 145 0
-307 -107 0
-307 128 0
-307 76 0
-307 142 0
-307 -86 0
307 107 -128 -76 -142 86 0
-308 -183 0
-308 112 0
-308 99 0
-308 156 0
-308 117 0
308 183 -112 -99 -156 -117 0
-309 26 0
-309 172 0
-309 -27 0
-309 109 0
-309 -137 0
309 -26 -172 27 -109 137 0
-310 20 0
-310 181 0
-310 90 0
-310 -158 0
-310 -160 0
310 -20 -181 -90 158 160 0
306 307 308 309 310 0
-311 107 0
-311 -72 0
-311 -122 0
-311 -73 0
-311 -68 0
311 -107 72 122 73 68 0
-312 -182 0
-312 130 0
-312 -24 0
-312 -12 0
-312 -68 0
312 182 -130 24 12 68 0
-313 28 0
-313 -134 0
-313 49 0
-313 -4 0
-313 109 0
313 -28 134 -49 4 -109 0
-314 106 0
-314 -149 0
-314 126 0
-314 64 0
-314 90 0
314 -106 149 -126 -64 -90 0
-315 104 0
-315 181 0
-315 97 0
-315 87 0
-315 119 0
315 -104 -181 -97 -87 -119 0
311 312 313 314 315 0
-316 27 0
-316 111 0
-316 -48 0
-316 -125 0
-316 -186 0
316 -27 -111 48 125 186 0
-317 -141 0
-317 -28 0
-317 -126 0
-317 -1 0
-317 -111 0
317 141 28 126 1 111 0
-318 -91 0
-318 -147 0
-318 -169 0
-318 -55 0
-318 -53 0
318 91 147 169 55 53 0
-319 141 0
-319 -181 0
-319 -146 0
-319 162 0
-319 99 0
319 -141 181 146 -162 -99 0
-320 38 0
-320 100 0
-320 -35 0
-320 153 0
-320 -157 0
320 -38 -100 35 -153 157 0
316 317 318 319 320 0
-321 54 0
-321 -99 0
-321 12 0
-321 -39 0
-321 -115 0
321 -54 99 -12 39 115 0
-322 60 0
-322 180 0
-322 155 0
-322 58 0
-322 122 0
322 -60 -180 -155 -58 -122 0
-323 55 0
-323 72 0
-323 12 0
-323 -123 0
-323 88 0
323 -55 -72 -12 123 -88 0
-324 -140 0
-324 81 0
-324 -10 0
-324 -179 0
-324 113 0
324 140 -81 10 179 -113 0
-325 -42 0
-325 96 0
-325 151 0
-325 -73 0
-325 -114 0
325 42 -96 -151 73 114 0
321 322 323 324 325 0
-326 70 0
-326 146 0
-326 165 0
-326 34 0
-326 142 0
326 -70 -146 -165 -34 -142 0
-327 -39 0
-327 171 0
-327 -19 0
-327 -107 0
-327 83 0
327 39 -171 19 107 -83 0
-328 65 0
-328 49 0
-328 186 0
-328 75 0
-328 87 0
328 -65 -49 -186 -75 -87 0
-329 67 0
-329 111 0
-329 54 0
-329 6 0
-329 -72 0
329 -67 -111 -54 -6 72 0
-330 -132 0
-330 -36 0
-330 25 0
-330 -34 0
-330 -155 0
330 132 36 -25 34 155 0
326 327 328 329 330 0
-331 -98 0
-331 -41 0
-331 11 0
-331 -49 0
-331 -45 0
331 98 41 -11 49 45 0
-332 -189 0
-332 -76 0
-332 9 0
-332 49 0
-332 -63 0
332 189 76 -9 -49 63 0
-333 99 0
-333 23 0
-333 -13 0
-333 135 0
-333 -92 0
333 -99 -23 13 -135 92 0
-334 36 0
-334 -130 0
-334 172 0
-334 -72 0
-334 -116 0
334 -36 130 -172 72 116 0
-335 -134 0
-335 167 0
-335 -115 0
-335 126 0
-335 -65 0
335 134 -167 115 -126 65 0
331 332 333 334 335 0
-336 96 0
-336 -21 0
-336 74 0
-336 -13 0
-336 123 0
336 -96 21 -74 13 -123 0
-337 -89 0
-337 -174 0
-337 -16 0
-337 63 0
-337 -186 0
337 89 174 16 -63 186 0
-338 155 0
-338 109 0
-338 -95 0
-338 -130 0
-338 -107 0
338 -155 -109 95 130 107 0
-339 116 0
-339 181 0
-339 121 0
-339 184 0
-339 -151 0
339 -116 -181 -121 -184 151 0
-340 120 0
-340 149 0
-340 -180 0
-340 172 0
-340 -28 0
340 -120 -149 180 -172 28 0
336 337 338 339 340 0
-341 3 0
-341 -73 0
-341 100 0
-341 71 0
-341 -19 0
341 -3 73 -100 -71 19 0
-342 127 0
-342 -164 0
-342 176 0
-342 -95 0
-342 12 0
342 -127 164 -176 95 -12 0
-343 146 0
-343 -169 0
-343 -55 0
-343 18 0
-343 -121 0
343 -146 169 55 -18 121 0
-344 80 0
-344 -183 0
-344 162 0
-344 -78 0
-344 54 0
344 -80 183 -162 78 -54 0
-345 133 0
-345 155 0
-345 -189 0
-345 157 0
-345 92 0
345 -133 -155 189 -157 -92 0
341 342 343 344 345 0
-346 -48 0
-346 114 0
-346 143 0
-346 -118 0
-346 -40 0
346 48 -114 -143 118 40 0
-347 -176 0
-347 -42 0
-347 -126 0
-347 80 0
-347 55 0
347 176 42 126 -80 -55 0
-348 -7 0
-348 -2 0
-348 21 0
-348 -53 0
-348 183 0
348 7 2 -21 53 -183 0
-349 133 0
-349 11 0
-349 -81 0
-349 10 0
-349 109 0
349 -133 -11 81 -10 -109 0
-350 57 0
-350 -55 0
-350 -45 0
-350 114 0
-350 -82 0
350 -57 55 45 -114 82 0
346 347 348 349 350 0
-351 -106 0
-351 5 0
-351 71 0
-351 111 0
-351 -187 0
351 106 -5 -71 -111 187 0
-352 96 0
-352 77 0
-352 -135 0
-352 130 0
-352 39 0
352 -96 -77 135 -130 -39 0
-353 150 0
-353 -76 0
-353 -80 0
-353 -72 0
-353 -81 0
353 -150 76 80 72 81 0
-354 48 0
-354 117 0
-354 3 0
-354 -39 0
-354 40 0
354 -48 -117 -3 39 -40 0
-355 4 0
-355 165 0
-355 42 0
-355 -80 0
-355 108 0
355 -4 -165 -42 80 -108 0
351 352 353 354 355 0
-356 -15 0
-356 -166 0
-356 97 0
-356 -165 0
-356 -142 0
356 15 166 -97 165 142 0
-357 -35 0
-357 92 0
-357 38 0
-357 17 0
-357 42 0
357 35 -92 -38 -17 -42 0
-358 -32 0
-358 86 0
-358 119 0
-358 166 0
-358 124 0
358 32 -86 -119 -166 -124 0
-359 -20 0
-359 -187 0
-359 -168 0
-359 67 0
-359 116 0
359 20 187 168 -67 -116 0
-360 -19 0
-360 105 0
-360 -100 0
-360 13 0
-360 -116 0
360 19 -105 100 -13 116 0
356 357 358 359 360 0
-361 -136 0
-361 36 0
-361 -34 0
-361 25 0
-361 -180 0
361 136 -36 34 -25 180 0
-362 117 0
-362 -189 0
-362 172 0
-362 118 0
-362 -80 0
362 -117 189 -172 -118 80 0
-363 141 0
-363 -139 0
-363 -156 0
-363 -66 0
-363 -10 0
363 -141 139 156 66 10 0
-364 -124 0
-364 100 0
-364 -146 0
-364 -49 0
-364 -36 0
364 124 -100 146 49 36 0
-365 -11 0
-365 -36 0
-365 41 0
-365 -101 0
-365 -50 0
365 11 36 -41 101 50 0
361 362 363 364 365 0
-366 -31 0
-366 -85 0
-366 -94 0
-366 133 0
-366 -76 0
366 31 85 94 -133 76 0
-367 -113 0
-367 -5 0
-367 -144 0
-367 122 0
-367 108 0
367 113 5 144 -122 -108 0
-368 169 0
-368 31 0
-368 -26 0
-368 97 0
-368 -29 0
368 -169 -31 26 -97 29 0
-369 28 0
-369 -54 0
-369 -130 0
-369 -148 0
-369 -188 0
369 -28 54 130 148 188 0
-370 23 0
-370 -30 0
-370 -84 0
-370 113 0
-370 74 0
370 -23 30 84 -113 -74 0
366 367 368 369 370 0
-371 -139 0
-371 187 0
-371 89 0
-371 -155 0
-371 154 0
371 139 -187 -89 155 -154 0
-372 98 0
-372 159 0
-372 -23 0
-372 29 0
-372 141 0
372 -98 -159 23 -29 -141 0
-373 13 0
-373 -137 0
-373 1 0
-373 -183 0
-373 44 0
373 -13 137 -1 183 -44 0
-374 -114 0
-374 156 0
-374 -26 0
-374 -172 0
-374 -148 0
374 114 -156 26 172 148 0
-375 14 0
-375 52 0
-375 -26 0
-375 156 0
-375 -147 0
375 -14 -52 26 -156 147 0
371 372 373 374 375 0
-376 18 0
-376 -60 0
-376 53 0
-376 25 0
-376 148 0
376 -18 60 -53 -25 -148 0
-377 -156 0
-377 -177 0
-377 95 0
-377 159 0
-377 -79 0
377 156 177 -95 -159 79 0
-378 -179 0
-378 50 0
-378 40 0
-378 169 0
-378 -74 0
378 179 -50 -40 -169 74 0
-379 -54 0
-379 159 0
-379 -111 0
-379 -105 0
-379 16 0
379 54 -159 111 105 -16 0
-380 -139 0
-380 36 0
-380 27 0
-380 30 0
-380 -67 0
380 139 -36 -27 -30 67 0
376 377 378 379 380 0
-381 74 0
-381 -98 0
-381 -81 0
-381 -101 0
-381 23 0
381 -74 98 81 101 -23 0
-382 39 0
-382 -1 0
-382 -100 0
-382 186 0
-382 150 0
382 -39 1 100 -186 -150 0
-383 -132 0
-383 -69 0
-383 134 0
-383 35 0
-383 164 0
383 132 69 -134 -35 -164 0
-384 60 0
-384 188 0
-384 -147 0
-384 -123 0
-384 141 0
384 -60 -188 147 123 -141 0
-385 3 0
-385 -112 0
-385 -91 0
-385 -19 0
-385 139 0
385 -3 112 91 19 -139 0
381 382 383 384 385 0
-386 -145 0
-386 -167 0
-386 148 0
-386 -44 0
-386 -124 0
386 145 167 -148 44 124 0
-387 144 0
-387 138 0
-387 119 0
-387 85 0
-387 107 0
387 -144 -138 -119 -85 -107 0
-388 168 0
-388 -104 0
-388 -76 0
-388 157 0
-388 -127 0
388 -168 104 76 -157 127 0
-389 154 0
-389 23 0
-389 40 0
-389 108 0
-389 107 0
389 -154 -23 -40 -108 -107 0
-390 58 0
-390 65 0
-390 -94 0
-390 23 0
-390 -90 0
390 -58 -65 94 -23 90 0
386 387 388 389 390 0
-391 -116 0
-391 94 0
-391 74 0
-391 -186 0
-391 -59 0
391 116 -94 -74 186 59 0
-392 168 0
-392 29 0
-392 -163 0
-392 60 0
-392 88 0
392 -168 -29 163 -60 -88 0
-393 -31 0
-393 136 0
-393 -62 0
-393 88 0
-393 77 0
393 31 -136 62 -88 -77 0
-394 124 0
-394 148 0
-394 16 0
-394 51 0
-394 -81 0
394 -124 -148 -16 -51 81 0
-395 -169 0
-395 -181 0
-395 151 0
-395 -156 0
-395 182 0
395 169 181 -151 156 -182 0
391 392 393 394 395 0
-396 -176 0
-396 130 0
-396 -161 0
-396 145 0
-396 64 0
396 176 -130 161 -145 -64 0
-397 99 0
-397 -177 0
-397 18 0
-397 168 0
-397 -115 0
397 -99 177 -18 -168 115 0
-398 61 0
-398 -172 0
-398 107 0
-398 29 0
-398 76 0
398 -61 172 -107 -29 -76 0
-399 153 0
-399 47 0
-399 -99 0
-399 -136 0
-399 137 0
399 -153 -47 99 136 -137 0
-400 40 0
-400 -125 0
-400 89 0
-400 107 0
-400 -55 0
400 -40 125 -89 -107 55 0
396 397 398 399 400 0
-401 95 0
-401 -169 0
-401 -47 0
-401 -42 0
-401 134 0
401 -95 169 47 42 -134 0
-402 126 0
-402 -21 0
-402 -160 0
-402 -144 0
-402 88 0
402 -126 21 160 144 -88 0
-403 68 0
-403 -2 0
-403 -78 0
-403 -123 0
-403 -95 0
403 -68 2 78 123 95 0
-404 -156 0
-404 93 0
-404 -170 0
-404 15 0
-404 -88 0
404 156 -93 170 -15 88 0
-405 162 0
-405 119 0
-405 84 0
-405 169 0
-405 -43 0
405 -162 -119 -84 -169 43 0
401 402 403 404 405 0
-406 19 0
-406 81 0
-406 -170 0
-406 -26 0
-406 43 0
406 -19 -81 170 26 -43 0
-407 -37 0
-407 188 0
-407 169 0
-407 -121 0
-407 145 0
407 37 -188 -169 121 -145 0
-408 142 0
-408 -125 0
-408 -120 0
-408 61 0
-408 136 0
408 -142 125 120 -61 -136 0
-409 161 0
-409 -20 0
-409 129 0
-409 137 0
-409 -13 0
409 -161 20 -129 -137 13 0
-410 38 0
-410 -174 0
-410 12 0
-410 18 0
-410 -13 0
410 -38 174 -12 -18 13 0
406 407 408 409 410 0
-411 117 0
-411 90 0
-411 51 0
-411 -134 0
-411 104 0
411 -117 -90 -51 134 -104 0
-412 106 0
-412 -120 0
-412 30 0
-412 62 0
-412 -169 0
412 -106 120 -30 -62 169 0
-413 78 0
-413 -61 0
-413 -171 0
-413 -54 0
-413 118 0
413 -78 61 171 54 -118 0
-414 120 0
-414 182 0
-414 -22 0
-414 -129 0
-414 121 0
414 -120 -182 22 129 -121 0
-415 151 0
-415 93 0
-415 88 0
-415 -148 0
-415 -56 0
415 -151 -93 -88 148 56 0
411 412 413 414 415 0
-416 -56 0
-416 153 0
-416 -171 0
-416 -112 0
-416 -189 0
416 56 -153 171 112 189 0
-417 -127 0
-417 -21 0
-417 -107 0
-417 164 0
-417 50 0
417 127 21 107 -164 -50 0
-418 -92 0
-418 62 0
-418 -153 0
-418 -185 0
-418 -107 0
418 92 -62 153 185 107 0
-419 99 0
-419 -24 0
-419 -146 0
-419 -125 0
-419 -58 0
419 -99 24 146 125 58 0
-420 -117 0
-420 48 0
-420 47 0
-420 -38 0
-420 -108 0
420 117 -48 -47 38 108 0
416 417 418 419 420 0
-421 -180 0
-421 38 0
-421 -150 0
-421 -88 0
-421 98 0
421 180 -38 150 88 -98 0
-422 -48 0
-422 -123 0
-422 -91 0
-422 -121 0
-422 3 0
422 48 123 91 121 -3 0
-423 -183 0
-423 156 0
-423 6 0
-423 -124 0
-423 -17 0
423 183 -156 -6 124 17 0
-424 99 0
-424 -154 0
-424 -133 0
-424 22 0
-424 -16 0
424 -99 154 133 -22 16 0
-425 148 0
-425 -56 0
-425 -9 0
-425 -40 0
-425 -172 0
425 -148 56 9 40 172 0
421 422 423 424 425 0
-426 14 0
-426 41 0
-426 85 0
-426 -171 0
-426 110 0
426 -14 -41 -85 171 -110 0
-427 -165 0
-427 -36 0
-427 9 0
-427 89 0
-427 -114 0
427 165 36 -9 -89 114 0
-428 134 0
-428 40 0
-428 -135 0
-428 12 0
-428 -111 0
428 -134 -40 135 -12 111 0
-429 -101 0
-429 -105 0
-429 -44 0
-429 184 0
-429 -49 0
429 101 105 44 -184 49 0
-430 -16 0
-430 -143 0
-430 159 0
-430 -66 0
-430 -59 0
430 16 143 -159 66 59 0
426 427 428 429 430 0
